<number of tasks>
20


<number of equipment>
5


<cycle time>
1000


<investment costs>
1,10686
2,13449
3,25096
4,15855
5,6957


<task times>
1,212,196,87,-1,-1
2,-1,-1,93,167,248
3,-1,-1,101,164,264
4,-1,-1,74,135,230
5,226,197,170,-1,-1
6,225,160,84,-1,-1
7,-1,-1,76,165,171
8,-1,-1,73,166,263
9,128,-1,104,-1,-1
10,-1,-1,80,122,193
11,-1,-1,75,201,267
12,-1,-1,116,164,226
13,177,151,77,-1,-1
14,-1,-1,76,180,258
15,221,178,55,-1,-1
16,-1,-1,85,127,186
17,234,217,83,-1,-1
18,173,-1,70,-1,-1
19,168,180,77,-1,-1
20,176,-1,80,-1,-1


<precedence relations>
1,12
2,12
3,6
3,7
6,10
6,11
7,8
7,9
8,12
9,12
10,13
10,14
10,15
12,16
12,17
12,18
12,19
15,20


<task types>
1,2
2,3
3,3
4,3
5,2
6,2
7,3
8,3
9,1
10,3
11,3
12,3
13,2
14,3
15,2
16,3
17,2
18,1
19,2
20,1


<line depot>
1,2
2,0
3,2
4,0
5,3


<processing costs>
1,14400
2,7200
3,21600
4,7200
5,7200


<saving costs>
1,1068
2,1344
3,2509
4,1585
5,695


<end>
